(set-info :smt-lib-version 2.6)
(set-logic AUFNIRA)
(set-info :source |
Encoded by: Mirek Olšák, Mikoláš Janota, Chad E. Brown
From a collection by: Vít Musil
Source url: https://prase.cz/library/FunkcionalniRovniceVM/FunkcionalniRovniceVM.pdf
Problem number: Úloha 11
|)
(set-info :license "https://creativecommons.org/licenses/by-nc/4.0/")
(set-info :category "crafted")
(set-info :status sat)

; Header
(declare-fun f (Real) Real)

; Equations
(assert (forall ((x Real)) (=> (> x 0.0) (= (+ (* (* x x x) (* (f x) (f x) (f x))) 1.0) (* (* x (f x)) (+ 1.0 (* x (f x))))))))

; Find all possible f

(check-sat)
(exit)
(get-model)
